NAME          DCAP_2_4_3_500_SS155
ROWS
 N  OBJ
 L  CON1
 L  CON2
 L  CON3
 L  CON4
 L  CON5
 L  CON6
 L  CON7
 L  CON8
 L  CON9
 L  CON10
 L  CON11
 L  CON12
 E  CON13
 E  CON14
 E  CON15
 E  CON16
 E  CON17
 E  CON18
 E  CON19
 E  CON20
 E  CON21
 E  CON22
 E  CON23
 E  CON24
COLUMNS
    x[1,1]    OBJ       6.180167      CON1      1.000000    
    x[1,1]    CON7      -1.000000     CON8      -1.000000   
    x[1,1]    CON9      -1.000000   
    x[1,2]    OBJ       6.563535      CON2      1.000000    
    x[1,2]    CON8      -1.000000     CON9      -1.000000   
    x[1,3]    OBJ       7.443064      CON3      1.000000    
    x[1,3]    CON9      -1.000000   
    x[2,1]    OBJ       6.732585      CON4      1.000000    
    x[2,1]    CON10     -1.000000     CON11     -1.000000   
    x[2,1]    CON12     -1.000000   
    x[2,2]    OBJ       5.039546      CON5      1.000000    
    x[2,2]    CON11     -1.000000     CON12     -1.000000   
    x[2,3]    OBJ       6.054841      CON6      1.000000    
    x[2,3]    CON12     -1.000000   
    MARKER    'MARKER'                'INTORG'
    u[1,1]    OBJ       48.076654     CON1      -1.000000   
    u[1,2]    OBJ       20.066487     CON2      -1.000000   
    u[1,3]    OBJ       32.230043     CON3      -1.000000   
    u[2,1]    OBJ       49.996186     CON4      -1.000000   
    u[2,2]    OBJ       49.466655     CON5      -1.000000   
    u[2,3]    OBJ       27.484319     CON6      -1.000000   
    y[1,1,1]  OBJ       9.051492      CON7      1.073851    
    y[1,1,1]  CON13     1.000000    
    y[1,1,2]  OBJ       8.431079      CON8      1.128451    
    y[1,1,2]  CON14     1.000000    
    y[1,1,3]  OBJ       8.040116      CON9      1.305578    
    y[1,1,3]  CON15     1.000000    
    y[1,2,1]  OBJ       8.400502      CON7      1.455469    
    y[1,2,1]  CON16     1.000000    
    y[1,2,2]  OBJ       9.948803      CON8      1.355672    
    y[1,2,2]  CON17     1.000000    
    y[1,2,3]  OBJ       9.524144      CON9      1.228464    
    y[1,2,3]  CON18     1.000000    
    y[1,3,1]  OBJ       9.094065      CON7      1.390763    
    y[1,3,1]  CON19     1.000000    
    y[1,3,2]  OBJ       5.565588      CON8      1.004679    
    y[1,3,2]  CON20     1.000000    
    y[1,3,3]  OBJ       9.080997      CON9      1.467946    
    y[1,3,3]  CON21     1.000000    
    y[1,4,1]  OBJ       7.425487      CON7      0.575547    
    y[1,4,1]  CON22     1.000000    
    y[1,4,2]  OBJ       8.102586      CON8      0.928319    
    y[1,4,2]  CON23     1.000000    
    y[1,4,3]  OBJ       5.458715      CON9      1.047493    
    y[1,4,3]  CON24     1.000000    
    y[2,1,1]  OBJ       9.719815      CON10     1.073851    
    y[2,1,1]  CON13     1.000000    
    y[2,1,2]  OBJ       9.836699      CON11     1.128451    
    y[2,1,2]  CON14     1.000000    
    y[2,1,3]  OBJ       5.685088      CON12     1.305578    
    y[2,1,3]  CON15     1.000000    
    y[2,2,1]  OBJ       9.558168      CON10     1.455469    
    y[2,2,1]  CON16     1.000000    
    y[2,2,2]  OBJ       8.250168      CON11     1.355672    
    y[2,2,2]  CON17     1.000000    
    y[2,2,3]  OBJ       8.601443      CON12     1.228464    
    y[2,2,3]  CON18     1.000000    
    y[2,3,1]  OBJ       5.736608      CON10     1.390763    
    y[2,3,1]  CON19     1.000000    
    y[2,3,2]  OBJ       5.016084      CON11     1.004679    
    y[2,3,2]  CON20     1.000000    
    y[2,3,3]  OBJ       9.177581      CON12     1.467946    
    y[2,3,3]  CON21     1.000000    
    y[2,4,1]  OBJ       5.041107      CON10     0.575547    
    y[2,4,1]  CON22     1.000000    
    y[2,4,2]  OBJ       5.603243      CON11     0.928319    
    y[2,4,2]  CON23     1.000000    
    y[2,4,3]  OBJ       8.261352      CON12     1.047493    
    y[2,4,3]  CON24     1.000000    
    z[1,1]    OBJ       841.454336    CON13     1.000000    
    z[1,2]    OBJ       896.559914    CON14     1.000000    
    z[1,3]    OBJ       777.611181    CON15     1.000000    
    z[2,1]    OBJ       594.826047    CON16     1.000000    
    z[2,2]    OBJ       581.077699    CON17     1.000000    
    z[2,3]    OBJ       966.654836    CON18     1.000000    
    z[3,1]    OBJ       772.475876    CON19     1.000000    
    z[3,2]    OBJ       546.824019    CON20     1.000000    
    z[3,3]    OBJ       863.785986    CON21     1.000000    
    z[4,1]    OBJ       603.336757    CON22     1.000000    
    z[4,2]    OBJ       891.479914    CON23     1.000000    
    z[4,3]    OBJ       696.829868    CON24     1.000000    
    MARKER    'MARKER'                 'INTEND'
RHS
    RHS       CON1      -0.000000     CON2      -0.000000   
    RHS       CON3      -0.000000     CON4      -0.000000   
    RHS       CON5      -0.000000     CON6      -0.000000   
    RHS       CON7      -0.000000     CON8      -0.000000   
    RHS       CON9      -0.000000     CON10     -0.000000   
    RHS       CON11     -0.000000     CON12     -0.000000   
    RHS       CON13     1.000000      CON14     1.000000    
    RHS       CON15     1.000000      CON16     1.000000    
    RHS       CON17     1.000000      CON18     1.000000    
    RHS       CON19     1.000000      CON20     1.000000    
    RHS       CON21     1.000000      CON22     1.000000    
    RHS       CON23     1.000000      CON24     1.000000    
BOUNDS
 BV BOUND     u[1,1]  
 BV BOUND     u[1,2]  
 BV BOUND     u[1,3]  
 BV BOUND     u[2,1]  
 BV BOUND     u[2,2]  
 BV BOUND     u[2,3]  
 BV BOUND     y[1,1,1]
 BV BOUND     y[1,1,2]
 BV BOUND     y[1,1,3]
 BV BOUND     y[1,2,1]
 BV BOUND     y[1,2,2]
 BV BOUND     y[1,2,3]
 BV BOUND     y[1,3,1]
 BV BOUND     y[1,3,2]
 BV BOUND     y[1,3,3]
 BV BOUND     y[1,4,1]
 BV BOUND     y[1,4,2]
 BV BOUND     y[1,4,3]
 BV BOUND     y[2,1,1]
 BV BOUND     y[2,1,2]
 BV BOUND     y[2,1,3]
 BV BOUND     y[2,2,1]
 BV BOUND     y[2,2,2]
 BV BOUND     y[2,2,3]
 BV BOUND     y[2,3,1]
 BV BOUND     y[2,3,2]
 BV BOUND     y[2,3,3]
 BV BOUND     y[2,4,1]
 BV BOUND     y[2,4,2]
 BV BOUND     y[2,4,3]
 BV BOUND     z[1,1]  
 BV BOUND     z[1,2]  
 BV BOUND     z[1,3]  
 BV BOUND     z[2,1]  
 BV BOUND     z[2,2]  
 BV BOUND     z[2,3]  
 BV BOUND     z[3,1]  
 BV BOUND     z[3,2]  
 BV BOUND     z[3,3]  
 BV BOUND     z[4,1]  
 BV BOUND     z[4,2]  
 BV BOUND     z[4,3]  
ENDATA
